benchmark/results/graph__10-1000-0.10-04_2/graph__10-1000-0.10-04_2_QuintonOs_Benders_sub.lp
\ This file has been generated by DOcplex
\ ENCODING=ISO-8859-1
\Problem name: Quinton Bounded Benders_dual_sub

Minimize
 obj: 0.001287001287 pi_nr_a0 + 0.000972762646 pi_nr_a1
      + 0.002463054187 pi_nr_a2 + 0.001071811361 pi_nr_a3
      + 0.001154734411 pi_nr_a4 + 0.000920810313 pi_nr_a5
      + 0.001639344262 pi_nr_a6 + 0.001009081736 pi_nr_a7
      + 0.003984063745 pi_nr_a8 + 0.001371742112 pi_nr_a9 + 2 pi_p_a0_a1
      + pi_p_a4_a7 + pi_p_a5_a4 + pi_p_a8_a2 + pi_p_a3_a2 + pi_p_a8_a8
      + 2576 pi_d_a0_a1_proc_0 + 2576 pi_d_a0_a1_proc_1 + 2549 pi_d_a1_a0_proc_0
      + 2549 pi_d_a1_a0_proc_1 + 1295 pi_d_a0_a2_proc_2 + 2576 pi_d_a0_a2_proc_0
      + 2576 pi_d_a0_a2_proc_1 + 1268 pi_d_a2_a0_proc_2 + 2549 pi_d_a2_a0_proc_0
      + 2549 pi_d_a2_a0_proc_1 + 2549 pi_d_a0_a3_proc_0 + 1268 pi_d_a0_a3_proc_1
      + 2576 pi_d_a3_a0_proc_0 + 1295 pi_d_a3_a0_proc_1 + pi_d_a0_a4_proc_2
      + 2563 pi_d_a0_a4_proc_0 + 2563 pi_d_a0_a4_proc_1 + 2562 pi_d_a4_a0_proc_0
      + 2562 pi_d_a4_a0_proc_1 + 1268 pi_d_a0_a5_proc_2 + 1268 pi_d_a0_a5_proc_0
      + 2549 pi_d_a0_a5_proc_1 + 1295 pi_d_a5_a0_proc_2 + 1295 pi_d_a5_a0_proc_0
      + 2576 pi_d_a5_a0_proc_1 + 1295 pi_d_a0_a6_proc_2 + 1295 pi_d_a0_a6_proc_0
      + 2576 pi_d_a0_a6_proc_1 + 1268 pi_d_a6_a0_proc_2 + 1268 pi_d_a6_a0_proc_0
      + 2549 pi_d_a6_a0_proc_1 + 1268 pi_d_a0_a7_proc_2 + 2549 pi_d_a0_a7_proc_0
      + 1268 pi_d_a0_a7_proc_1 + 1295 pi_d_a7_a0_proc_2 + 2576 pi_d_a7_a0_proc_0
      + 1295 pi_d_a7_a0_proc_1 + 1295 pi_d_a0_a8_proc_2 + 2576 pi_d_a0_a8_proc_0
      + 1295 pi_d_a0_a8_proc_1 + 1268 pi_d_a8_a0_proc_2 + 2549 pi_d_a8_a0_proc_0
      + 1268 pi_d_a8_a0_proc_1 + pi_d_a1_a2_proc_3 + 2563 pi_d_a1_a2_proc_0
      + 2563 pi_d_a1_a2_proc_1 + 2562 pi_d_a2_a1_proc_0 + 2562 pi_d_a2_a1_proc_1
      + 2576 pi_d_a1_a3_proc_0 + 1295 pi_d_a1_a3_proc_1 + 2549 pi_d_a3_a1_proc_0
      + 1268 pi_d_a3_a1_proc_1 + 1268 pi_d_a1_a4_proc_3 + 2549 pi_d_a1_a4_proc_0
      + 2549 pi_d_a1_a4_proc_1 + 1295 pi_d_a4_a1_proc_3 + 2576 pi_d_a4_a1_proc_0
      + 2576 pi_d_a4_a1_proc_1 + 1295 pi_d_a1_a5_proc_3 + 1295 pi_d_a1_a5_proc_0
      + 2576 pi_d_a1_a5_proc_1 + 1268 pi_d_a5_a1_proc_3 + 1268 pi_d_a5_a1_proc_0
      + 2549 pi_d_a5_a1_proc_1 + 1295 pi_d_a1_a6_proc_3 + 1295 pi_d_a1_a6_proc_0
      + 2576 pi_d_a1_a6_proc_1 + 1268 pi_d_a6_a1_proc_3 + 1268 pi_d_a6_a1_proc_0
      + 2549 pi_d_a6_a1_proc_1 + 2576 pi_d_a1_a7_proc_0 + 1295 pi_d_a1_a7_proc_1
      + 2549 pi_d_a7_a1_proc_0 + 1268 pi_d_a7_a1_proc_1 + 1295 pi_d_a1_a8_proc_3
      + 2576 pi_d_a1_a8_proc_0 + 1295 pi_d_a1_a8_proc_1 + 1268 pi_d_a8_a1_proc_3
      + 2549 pi_d_a8_a1_proc_0 + 1268 pi_d_a8_a1_proc_1 - 13 pi_d_a1_a9_proc_3
      + 14 pi_d_a9_a1_proc_3 + 2576 pi_d_a2_a3_proc_0 + 1295 pi_d_a2_a3_proc_1
      + 2549 pi_d_a3_a2_proc_0 + 1268 pi_d_a3_a2_proc_1 + 1295 pi_d_a2_a4_proc_2
      + 1295 pi_d_a2_a4_proc_3 + 2576 pi_d_a2_a4_proc_0 + 2576 pi_d_a2_a4_proc_1
      + 1268 pi_d_a4_a2_proc_2 + 1268 pi_d_a4_a2_proc_3 + 2549 pi_d_a4_a2_proc_0
      + 2549 pi_d_a4_a2_proc_1 + 2549 pi_d_a2_a5_proc_2 + 1268 pi_d_a2_a5_proc_3
      + 1268 pi_d_a2_a5_proc_0 + 2549 pi_d_a2_a5_proc_1 + 2576 pi_d_a5_a2_proc_2
      + 1295 pi_d_a5_a2_proc_3 + 1295 pi_d_a5_a2_proc_0 + 2576 pi_d_a5_a2_proc_1
      + 2576 pi_d_a2_a6_proc_2 + 1295 pi_d_a2_a6_proc_3 + 1295 pi_d_a2_a6_proc_0
      + 2576 pi_d_a2_a6_proc_1 + 2549 pi_d_a6_a2_proc_2 + 1268 pi_d_a6_a2_proc_3
      + 1268 pi_d_a6_a2_proc_0 + 2549 pi_d_a6_a2_proc_1 + 2576 pi_d_a2_a7_proc_2
      + 2576 pi_d_a2_a7_proc_0 + 1295 pi_d_a2_a7_proc_1 + 2549 pi_d_a7_a2_proc_2
      + 2549 pi_d_a7_a2_proc_0 + 1268 pi_d_a7_a2_proc_1 + 2576 pi_d_a2_a8_proc_2
      + 1295 pi_d_a2_a8_proc_3 + 2576 pi_d_a2_a8_proc_0 + 1295 pi_d_a2_a8_proc_1
      + 2549 pi_d_a8_a2_proc_2 + 1268 pi_d_a8_a2_proc_3 + 2549 pi_d_a8_a2_proc_0
      + 1268 pi_d_a8_a2_proc_1 - 13 pi_d_a2_a9_proc_3 + 14 pi_d_a9_a2_proc_3
      + 2576 pi_d_a3_a4_proc_0 + 1295 pi_d_a3_a4_proc_1 + 2549 pi_d_a4_a3_proc_0
      + 1268 pi_d_a4_a3_proc_1 + 1295 pi_d_a3_a5_proc_0 + 1295 pi_d_a3_a5_proc_1
      + 1268 pi_d_a5_a3_proc_0 + 1268 pi_d_a5_a3_proc_1 + 1295 pi_d_a3_a6_proc_0
      + 1295 pi_d_a3_a6_proc_1 + 1268 pi_d_a6_a3_proc_0 + 1268 pi_d_a6_a3_proc_1
      + 2563 pi_d_a3_a7_proc_0 + pi_d_a3_a7_proc_1 + 2562 pi_d_a7_a3_proc_0
      + 2563 pi_d_a3_a8_proc_0 + pi_d_a3_a8_proc_1 + 2562 pi_d_a8_a3_proc_0
      + 1295 pi_d_a4_a5_proc_2 + 2576 pi_d_a4_a5_proc_3 + 1295 pi_d_a4_a5_proc_0
      + 2576 pi_d_a4_a5_proc_1 + 1268 pi_d_a5_a4_proc_2 + 2549 pi_d_a5_a4_proc_3
      + 1268 pi_d_a5_a4_proc_0 + 2549 pi_d_a5_a4_proc_1 + 1268 pi_d_a4_a6_proc_2
      + 2549 pi_d_a4_a6_proc_3 + 1268 pi_d_a4_a6_proc_0 + 2549 pi_d_a4_a6_proc_1
      + 1295 pi_d_a6_a4_proc_2 + 2576 pi_d_a6_a4_proc_3 + 1295 pi_d_a6_a4_proc_0
      + 2576 pi_d_a6_a4_proc_1 + 1295 pi_d_a4_a7_proc_2 + 2576 pi_d_a4_a7_proc_0
      + 1295 pi_d_a4_a7_proc_1 + 1268 pi_d_a7_a4_proc_2 + 2549 pi_d_a7_a4_proc_0
      + 1268 pi_d_a7_a4_proc_1 + 1295 pi_d_a4_a8_proc_2 + 2576 pi_d_a4_a8_proc_3
      + 2576 pi_d_a4_a8_proc_0 + 1295 pi_d_a4_a8_proc_1 + 1268 pi_d_a8_a4_proc_2
      + 2549 pi_d_a8_a4_proc_3 + 2549 pi_d_a8_a4_proc_0 + 1268 pi_d_a8_a4_proc_1
      + 1268 pi_d_a4_a9_proc_3 + 1295 pi_d_a9_a4_proc_3 + 2563 pi_d_a5_a6_proc_2
      + 2563 pi_d_a5_a6_proc_3 + pi_d_a5_a6_proc_0 + 2563 pi_d_a5_a6_proc_1
      + 2562 pi_d_a6_a5_proc_2 + 2562 pi_d_a6_a5_proc_3 + 2562 pi_d_a6_a5_proc_1
      + 2576 pi_d_a5_a7_proc_2 + 1295 pi_d_a5_a7_proc_0 + 1295 pi_d_a5_a7_proc_1
      + 2549 pi_d_a7_a5_proc_2 + 1268 pi_d_a7_a5_proc_0 + 1268 pi_d_a7_a5_proc_1
      + 2576 pi_d_a5_a8_proc_2 + 2576 pi_d_a5_a8_proc_3 + 1295 pi_d_a5_a8_proc_0
      + 1295 pi_d_a5_a8_proc_1 + 2549 pi_d_a8_a5_proc_2 + 2549 pi_d_a8_a5_proc_3
      + 1268 pi_d_a8_a5_proc_0 + 1268 pi_d_a8_a5_proc_1 + 1295 pi_d_a5_a9_proc_3
      + 1268 pi_d_a9_a5_proc_3 + 2549 pi_d_a6_a7_proc_2 + 1268 pi_d_a6_a7_proc_0
      + 1268 pi_d_a6_a7_proc_1 + 2576 pi_d_a7_a6_proc_2 + 1295 pi_d_a7_a6_proc_0
      + 1295 pi_d_a7_a6_proc_1 + 2576 pi_d_a6_a8_proc_2 + 2576 pi_d_a6_a8_proc_3
      + 1295 pi_d_a6_a8_proc_0 + 1295 pi_d_a6_a8_proc_1 + 2549 pi_d_a8_a6_proc_2
      + 2549 pi_d_a8_a6_proc_3 + 1268 pi_d_a8_a6_proc_0 + 1268 pi_d_a8_a6_proc_1
      + 1295 pi_d_a6_a9_proc_3 + 1268 pi_d_a9_a6_proc_3 + 2562 pi_d_a7_a8_proc_2
      + 2562 pi_d_a7_a8_proc_0 + 2563 pi_d_a8_a7_proc_2 + 2563 pi_d_a8_a7_proc_0
      + pi_d_a8_a7_proc_1 + 1295 pi_d_a8_a9_proc_3 + 1268 pi_d_a9_a8_proc_3
      + pi_y2_a0_proc_2 + pi_y2_a1_proc_3 + pi_y2_a2_proc_3 + pi_y2_a3_proc_1
      + pi_y2_a4_proc_2 + pi_y2_a5_proc_0 + pi_y2_a6_proc_0 + pi_y2_a7_proc_1
      + pi_y2_a8_proc_1 + pi_y2_a9_proc_3
Subject To
 c1: pi_nr_a0 + pi_nr_a1 + pi_nr_a2 + pi_nr_a3 + pi_nr_a4 + pi_nr_a5 + pi_nr_a6
     + pi_nr_a7 + pi_nr_a8 + pi_nr_a9 - pi_y1_a0 - pi_y1_a1 - pi_y1_a2
     - pi_y1_a3 - pi_y1_a4 - pi_y1_a5 - pi_y1_a6 - pi_y1_a7 - pi_y1_a8
     - pi_y1_a9 >= 1
 c2: pi_p_a0_a1 - pi_p_a4_a0 + pi_p_a0_a9 + pi_d_a0_a1_proc_0
     + pi_d_a0_a1_proc_1 - pi_d_a1_a0_proc_0 - pi_d_a1_a0_proc_1
     + pi_d_a0_a2_proc_2 + pi_d_a0_a2_proc_0 + pi_d_a0_a2_proc_1
     - pi_d_a2_a0_proc_2 - pi_d_a2_a0_proc_0 - pi_d_a2_a0_proc_1
     + pi_d_a0_a3_proc_0 + pi_d_a0_a3_proc_1 - pi_d_a3_a0_proc_0
     - pi_d_a3_a0_proc_1 + pi_d_a0_a4_proc_2 + pi_d_a0_a4_proc_0
     + pi_d_a0_a4_proc_1 - pi_d_a4_a0_proc_2 - pi_d_a4_a0_proc_0
     - pi_d_a4_a0_proc_1 + pi_d_a0_a5_proc_2 + pi_d_a0_a5_proc_0
     + pi_d_a0_a5_proc_1 - pi_d_a5_a0_proc_2 - pi_d_a5_a0_proc_0
     - pi_d_a5_a0_proc_1 + pi_d_a0_a6_proc_2 + pi_d_a0_a6_proc_0
     + pi_d_a0_a6_proc_1 - pi_d_a6_a0_proc_2 - pi_d_a6_a0_proc_0
     - pi_d_a6_a0_proc_1 + pi_d_a0_a7_proc_2 + pi_d_a0_a7_proc_0
     + pi_d_a0_a7_proc_1 - pi_d_a7_a0_proc_2 - pi_d_a7_a0_proc_0
     - pi_d_a7_a0_proc_1 + pi_d_a0_a8_proc_2 + pi_d_a0_a8_proc_0
     + pi_d_a0_a8_proc_1 - pi_d_a8_a0_proc_2 - pi_d_a8_a0_proc_0
     - pi_d_a8_a0_proc_1 >= 0
 c3: 516 pi_p_a0_a1 + 516 pi_p_a0_a9 + 516 pi_d_a0_a1_proc_0
     + 516 pi_d_a0_a2_proc_0 + 516 pi_d_a0_a3_proc_0 + 516 pi_d_a0_a4_proc_0
     + 516 pi_d_a0_a5_proc_0 + 516 pi_d_a0_a6_proc_0 + 516 pi_d_a0_a7_proc_0
     + 516 pi_d_a0_a8_proc_0 + pi_y1_a0 + pi_y2_a0_proc_0 >= 0
 c4: 417 pi_p_a0_a1 + 417 pi_p_a0_a9 + 417 pi_d_a0_a1_proc_1
     + 417 pi_d_a0_a2_proc_1 + 417 pi_d_a0_a3_proc_1 + 417 pi_d_a0_a4_proc_1
     + 417 pi_d_a0_a5_proc_1 + 417 pi_d_a0_a6_proc_1 + 417 pi_d_a0_a7_proc_1
     + 417 pi_d_a0_a8_proc_1 + pi_y1_a0 + pi_y2_a0_proc_1 >= 0
 c5: 777 pi_p_a0_a1 + 777 pi_p_a0_a9 + 777 pi_d_a0_a2_proc_2
     + 777 pi_d_a0_a4_proc_2 + 777 pi_d_a0_a5_proc_2 + 777 pi_d_a0_a6_proc_2
     + 777 pi_d_a0_a7_proc_2 + 777 pi_d_a0_a8_proc_2 + pi_y1_a0
     + pi_y2_a0_proc_2 >= 0
 c6: - pi_p_a0_a1 - pi_p_a2_a1 + pi_p_a1_a6 - pi_d_a0_a1_proc_0
     - pi_d_a0_a1_proc_1 + pi_d_a1_a0_proc_0 + pi_d_a1_a0_proc_1
     + pi_d_a1_a2_proc_3 + pi_d_a1_a2_proc_0 + pi_d_a1_a2_proc_1
     - pi_d_a2_a1_proc_3 - pi_d_a2_a1_proc_0 - pi_d_a2_a1_proc_1
     + pi_d_a1_a3_proc_0 + pi_d_a1_a3_proc_1 - pi_d_a3_a1_proc_0
     - pi_d_a3_a1_proc_1 + pi_d_a1_a4_proc_3 + pi_d_a1_a4_proc_0
     + pi_d_a1_a4_proc_1 - pi_d_a4_a1_proc_3 - pi_d_a4_a1_proc_0
     - pi_d_a4_a1_proc_1 + pi_d_a1_a5_proc_3 + pi_d_a1_a5_proc_0
     + pi_d_a1_a5_proc_1 - pi_d_a5_a1_proc_3 - pi_d_a5_a1_proc_0
     - pi_d_a5_a1_proc_1 + pi_d_a1_a6_proc_3 + pi_d_a1_a6_proc_0
     + pi_d_a1_a6_proc_1 - pi_d_a6_a1_proc_3 - pi_d_a6_a1_proc_0
     - pi_d_a6_a1_proc_1 + pi_d_a1_a7_proc_0 + pi_d_a1_a7_proc_1
     - pi_d_a7_a1_proc_0 - pi_d_a7_a1_proc_1 + pi_d_a1_a8_proc_3
     + pi_d_a1_a8_proc_0 + pi_d_a1_a8_proc_1 - pi_d_a8_a1_proc_3
     - pi_d_a8_a1_proc_0 - pi_d_a8_a1_proc_1 + pi_d_a1_a9_proc_3
     - pi_d_a9_a1_proc_3 >= 0
 c7: 1041 pi_p_a1_a6 + 1041 pi_d_a1_a0_proc_0 + 1041 pi_d_a1_a2_proc_0
     + 1041 pi_d_a1_a3_proc_0 + 1041 pi_d_a1_a4_proc_0 + 1041 pi_d_a1_a5_proc_0
     + 1041 pi_d_a1_a6_proc_0 + 1041 pi_d_a1_a7_proc_0 + 1041 pi_d_a1_a8_proc_0
     + pi_y1_a1 + pi_y2_a1_proc_0 >= 0
 c8: 1037 pi_p_a1_a6 + 1037 pi_d_a1_a0_proc_1 + 1037 pi_d_a1_a2_proc_1
     + 1037 pi_d_a1_a3_proc_1 + 1037 pi_d_a1_a4_proc_1 + 1037 pi_d_a1_a5_proc_1
     + 1037 pi_d_a1_a6_proc_1 + 1037 pi_d_a1_a7_proc_1 + 1037 pi_d_a1_a8_proc_1
     + pi_y1_a1 + pi_y2_a1_proc_1 >= 0
 c9: 1028 pi_p_a1_a6 + 1028 pi_d_a1_a2_proc_3 + 1028 pi_d_a1_a4_proc_3
     + 1028 pi_d_a1_a5_proc_3 + 1028 pi_d_a1_a6_proc_3 + 1028 pi_d_a1_a8_proc_3
     + 1028 pi_d_a1_a9_proc_3 + pi_y1_a1 + pi_y2_a1_proc_3 >= 0
 c10: pi_p_a2_a1 + pi_p_a2_a3 - pi_p_a8_a2 - pi_p_a3_a2 - pi_d_a0_a2_proc_2
      - pi_d_a0_a2_proc_0 - pi_d_a0_a2_proc_1 + pi_d_a2_a0_proc_2
      + pi_d_a2_a0_proc_0 + pi_d_a2_a0_proc_1 - pi_d_a1_a2_proc_3
      - pi_d_a1_a2_proc_0 - pi_d_a1_a2_proc_1 + pi_d_a2_a1_proc_3
      + pi_d_a2_a1_proc_0 + pi_d_a2_a1_proc_1 + pi_d_a2_a3_proc_0
      + pi_d_a2_a3_proc_1 - pi_d_a3_a2_proc_0 - pi_d_a3_a2_proc_1
      + pi_d_a2_a4_proc_2 + pi_d_a2_a4_proc_3 + pi_d_a2_a4_proc_0
      + pi_d_a2_a4_proc_1 - pi_d_a4_a2_proc_2 - pi_d_a4_a2_proc_3
      - pi_d_a4_a2_proc_0 - pi_d_a4_a2_proc_1 + pi_d_a2_a5_proc_2
      + pi_d_a2_a5_proc_3 + pi_d_a2_a5_proc_0 + pi_d_a2_a5_proc_1
      - pi_d_a5_a2_proc_2 - pi_d_a5_a2_proc_3 - pi_d_a5_a2_proc_0
      - pi_d_a5_a2_proc_1 + pi_d_a2_a6_proc_2 + pi_d_a2_a6_proc_3
      + pi_d_a2_a6_proc_0 + pi_d_a2_a6_proc_1 - pi_d_a6_a2_proc_2
      - pi_d_a6_a2_proc_3 - pi_d_a6_a2_proc_0 - pi_d_a6_a2_proc_1
      + pi_d_a2_a7_proc_2 + pi_d_a2_a7_proc_0 + pi_d_a2_a7_proc_1
      - pi_d_a7_a2_proc_2 - pi_d_a7_a2_proc_0 - pi_d_a7_a2_proc_1
      + pi_d_a2_a8_proc_2 + pi_d_a2_a8_proc_3 + pi_d_a2_a8_proc_0
      + pi_d_a2_a8_proc_1 - pi_d_a8_a2_proc_2 - pi_d_a8_a2_proc_3
      - pi_d_a8_a2_proc_0 - pi_d_a8_a2_proc_1 + pi_d_a2_a9_proc_3
      - pi_d_a9_a2_proc_3 >= 0
 c11: 894 pi_p_a2_a1 + 894 pi_p_a2_a3 + 894 pi_d_a2_a0_proc_0
      + 894 pi_d_a2_a1_proc_0 + 894 pi_d_a2_a3_proc_0 + 894 pi_d_a2_a4_proc_0
      + 894 pi_d_a2_a5_proc_0 + 894 pi_d_a2_a6_proc_0 + 894 pi_d_a2_a7_proc_0
      + 894 pi_d_a2_a8_proc_0 + pi_y1_a2 + pi_y2_a2_proc_0 >= 0
 c12: 1076 pi_p_a2_a1 + 1076 pi_p_a2_a3 + 1076 pi_d_a2_a0_proc_1
      + 1076 pi_d_a2_a1_proc_1 + 1076 pi_d_a2_a3_proc_1 + 1076 pi_d_a2_a4_proc_1
      + 1076 pi_d_a2_a5_proc_1 + 1076 pi_d_a2_a6_proc_1 + 1076 pi_d_a2_a7_proc_1
      + 1076 pi_d_a2_a8_proc_1 + pi_y1_a2 + pi_y2_a2_proc_1 >= 0
 c13: 1092 pi_p_a2_a1 + 1092 pi_p_a2_a3 + 1092 pi_d_a2_a0_proc_2
      + 1092 pi_d_a2_a4_proc_2 + 1092 pi_d_a2_a5_proc_2 + 1092 pi_d_a2_a6_proc_2
      + 1092 pi_d_a2_a7_proc_2 + 1092 pi_d_a2_a8_proc_2 + pi_y1_a2
      + pi_y2_a2_proc_2 >= 0
 c14: 406 pi_p_a2_a1 + 406 pi_p_a2_a3 + 406 pi_d_a2_a1_proc_3
      + 406 pi_d_a2_a4_proc_3 + 406 pi_d_a2_a5_proc_3 + 406 pi_d_a2_a6_proc_3
      + 406 pi_d_a2_a8_proc_3 + 406 pi_d_a2_a9_proc_3 + pi_y1_a2
      + pi_y2_a2_proc_3 >= 0
 c15: - pi_p_a2_a3 + pi_p_a3_a5 - pi_p_a6_a3 + pi_p_a3_a2 - pi_d_a0_a3_proc_0
      - pi_d_a0_a3_proc_1 + pi_d_a3_a0_proc_0 + pi_d_a3_a0_proc_1
      - pi_d_a1_a3_proc_0 - pi_d_a1_a3_proc_1 + pi_d_a3_a1_proc_0
      + pi_d_a3_a1_proc_1 - pi_d_a2_a3_proc_0 - pi_d_a2_a3_proc_1
      + pi_d_a3_a2_proc_0 + pi_d_a3_a2_proc_1 + pi_d_a3_a4_proc_0
      + pi_d_a3_a4_proc_1 - pi_d_a4_a3_proc_0 - pi_d_a4_a3_proc_1
      + pi_d_a3_a5_proc_0 + pi_d_a3_a5_proc_1 - pi_d_a5_a3_proc_0
      - pi_d_a5_a3_proc_1 + pi_d_a3_a6_proc_0 + pi_d_a3_a6_proc_1
      - pi_d_a6_a3_proc_0 - pi_d_a6_a3_proc_1 + pi_d_a3_a7_proc_0
      + pi_d_a3_a7_proc_1 - pi_d_a7_a3_proc_0 - pi_d_a7_a3_proc_1
      + pi_d_a3_a8_proc_0 + pi_d_a3_a8_proc_1 - pi_d_a8_a3_proc_0
      - pi_d_a8_a3_proc_1 >= 0
 c16: 1244 pi_p_a3_a5 + 1244 pi_p_a3_a2 + 1244 pi_d_a3_a0_proc_0
      + 1244 pi_d_a3_a1_proc_0 + 1244 pi_d_a3_a2_proc_0 + 1244 pi_d_a3_a4_proc_0
      + 1244 pi_d_a3_a5_proc_0 + 1244 pi_d_a3_a6_proc_0 + 1244 pi_d_a3_a7_proc_0
      + 1244 pi_d_a3_a8_proc_0 + pi_y1_a3 + pi_y2_a3_proc_0 >= 0
 c17: 933 pi_p_a3_a5 + 933 pi_p_a3_a2 + 933 pi_d_a3_a0_proc_1
      + 933 pi_d_a3_a1_proc_1 + 933 pi_d_a3_a2_proc_1 + 933 pi_d_a3_a4_proc_1
      + 933 pi_d_a3_a5_proc_1 + 933 pi_d_a3_a6_proc_1 + 933 pi_d_a3_a7_proc_1
      + 933 pi_d_a3_a8_proc_1 + pi_y1_a3 + pi_y2_a3_proc_1 >= 0
 c18: pi_p_a4_a0 + pi_p_a4_a7 - pi_p_a8_a4 - pi_p_a5_a4 - pi_d_a0_a4_proc_2
      - pi_d_a0_a4_proc_0 - pi_d_a0_a4_proc_1 + pi_d_a4_a0_proc_2
      + pi_d_a4_a0_proc_0 + pi_d_a4_a0_proc_1 - pi_d_a1_a4_proc_3
      - pi_d_a1_a4_proc_0 - pi_d_a1_a4_proc_1 + pi_d_a4_a1_proc_3
      + pi_d_a4_a1_proc_0 + pi_d_a4_a1_proc_1 - pi_d_a2_a4_proc_2
      - pi_d_a2_a4_proc_3 - pi_d_a2_a4_proc_0 - pi_d_a2_a4_proc_1
      + pi_d_a4_a2_proc_2 + pi_d_a4_a2_proc_3 + pi_d_a4_a2_proc_0
      + pi_d_a4_a2_proc_1 - pi_d_a3_a4_proc_0 - pi_d_a3_a4_proc_1
      + pi_d_a4_a3_proc_0 + pi_d_a4_a3_proc_1 + pi_d_a4_a5_proc_2
      + pi_d_a4_a5_proc_3 + pi_d_a4_a5_proc_0 + pi_d_a4_a5_proc_1
      - pi_d_a5_a4_proc_2 - pi_d_a5_a4_proc_3 - pi_d_a5_a4_proc_0
      - pi_d_a5_a4_proc_1 + pi_d_a4_a6_proc_2 + pi_d_a4_a6_proc_3
      + pi_d_a4_a6_proc_0 + pi_d_a4_a6_proc_1 - pi_d_a6_a4_proc_2
      - pi_d_a6_a4_proc_3 - pi_d_a6_a4_proc_0 - pi_d_a6_a4_proc_1
      + pi_d_a4_a7_proc_2 + pi_d_a4_a7_proc_0 + pi_d_a4_a7_proc_1
      - pi_d_a7_a4_proc_2 - pi_d_a7_a4_proc_0 - pi_d_a7_a4_proc_1
      + pi_d_a4_a8_proc_2 + pi_d_a4_a8_proc_3 + pi_d_a4_a8_proc_0
      + pi_d_a4_a8_proc_1 - pi_d_a8_a4_proc_2 - pi_d_a8_a4_proc_3
      - pi_d_a8_a4_proc_0 - pi_d_a8_a4_proc_1 + pi_d_a4_a9_proc_3
      - pi_d_a9_a4_proc_3 >= 0
 c19: 890 pi_p_a4_a0 + 890 pi_p_a4_a7 + 890 pi_d_a4_a0_proc_0
      + 890 pi_d_a4_a1_proc_0 + 890 pi_d_a4_a2_proc_0 + 890 pi_d_a4_a3_proc_0
      + 890 pi_d_a4_a5_proc_0 + 890 pi_d_a4_a6_proc_0 + 890 pi_d_a4_a7_proc_0
      + 890 pi_d_a4_a8_proc_0 + pi_y1_a4 + pi_y2_a4_proc_0 >= 0
 c20: 1165 pi_p_a4_a0 + 1165 pi_p_a4_a7 + 1165 pi_d_a4_a0_proc_1
      + 1165 pi_d_a4_a1_proc_1 + 1165 pi_d_a4_a2_proc_1 + 1165 pi_d_a4_a3_proc_1
      + 1165 pi_d_a4_a5_proc_1 + 1165 pi_d_a4_a6_proc_1 + 1165 pi_d_a4_a7_proc_1
      + 1165 pi_d_a4_a8_proc_1 + pi_y1_a4 + pi_y2_a4_proc_1 >= 0
 c21: 866 pi_p_a4_a0 + 866 pi_p_a4_a7 + 866 pi_d_a4_a0_proc_2
      + 866 pi_d_a4_a2_proc_2 + 866 pi_d_a4_a5_proc_2 + 866 pi_d_a4_a6_proc_2
      + 866 pi_d_a4_a7_proc_2 + 866 pi_d_a4_a8_proc_2 + pi_y1_a4
      + pi_y2_a4_proc_2 >= 0
 c22: 550 pi_p_a4_a0 + 550 pi_p_a4_a7 + 550 pi_d_a4_a1_proc_3
      + 550 pi_d_a4_a2_proc_3 + 550 pi_d_a4_a5_proc_3 + 550 pi_d_a4_a6_proc_3
      + 550 pi_d_a4_a8_proc_3 + 550 pi_d_a4_a9_proc_3 + pi_y1_a4
      + pi_y2_a4_proc_3 >= 0
 c23: - pi_p_a3_a5 + pi_p_a5_a4 - pi_d_a0_a5_proc_2 - pi_d_a0_a5_proc_0
      - pi_d_a0_a5_proc_1 + pi_d_a5_a0_proc_2 + pi_d_a5_a0_proc_0
      + pi_d_a5_a0_proc_1 - pi_d_a1_a5_proc_3 - pi_d_a1_a5_proc_0
      - pi_d_a1_a5_proc_1 + pi_d_a5_a1_proc_3 + pi_d_a5_a1_proc_0
      + pi_d_a5_a1_proc_1 - pi_d_a2_a5_proc_2 - pi_d_a2_a5_proc_3
      - pi_d_a2_a5_proc_0 - pi_d_a2_a5_proc_1 + pi_d_a5_a2_proc_2
      + pi_d_a5_a2_proc_3 + pi_d_a5_a2_proc_0 + pi_d_a5_a2_proc_1
      - pi_d_a3_a5_proc_0 - pi_d_a3_a5_proc_1 + pi_d_a5_a3_proc_0
      + pi_d_a5_a3_proc_1 - pi_d_a4_a5_proc_2 - pi_d_a4_a5_proc_3
      - pi_d_a4_a5_proc_0 - pi_d_a4_a5_proc_1 + pi_d_a5_a4_proc_2
      + pi_d_a5_a4_proc_3 + pi_d_a5_a4_proc_0 + pi_d_a5_a4_proc_1
      + pi_d_a5_a6_proc_2 + pi_d_a5_a6_proc_3 + pi_d_a5_a6_proc_0
      + pi_d_a5_a6_proc_1 - pi_d_a6_a5_proc_2 - pi_d_a6_a5_proc_3
      - pi_d_a6_a5_proc_0 - pi_d_a6_a5_proc_1 + pi_d_a5_a7_proc_2
      + pi_d_a5_a7_proc_0 + pi_d_a5_a7_proc_1 - pi_d_a7_a5_proc_2
      - pi_d_a7_a5_proc_0 - pi_d_a7_a5_proc_1 + pi_d_a5_a8_proc_2
      + pi_d_a5_a8_proc_3 + pi_d_a5_a8_proc_0 + pi_d_a5_a8_proc_1
      - pi_d_a8_a5_proc_2 - pi_d_a8_a5_proc_3 - pi_d_a8_a5_proc_0
      - pi_d_a8_a5_proc_1 + pi_d_a5_a9_proc_3 - pi_d_a9_a5_proc_3 >= 0
 c24: 1086 pi_p_a5_a4 + 1086 pi_d_a5_a0_proc_0 + 1086 pi_d_a5_a1_proc_0
      + 1086 pi_d_a5_a2_proc_0 + 1086 pi_d_a5_a3_proc_0 + 1086 pi_d_a5_a4_proc_0
      + 1086 pi_d_a5_a6_proc_0 + 1086 pi_d_a5_a7_proc_0 + 1086 pi_d_a5_a8_proc_0
      + pi_y1_a5 + pi_y2_a5_proc_0 >= 0
 c25: 719 pi_p_a5_a4 + 719 pi_d_a5_a0_proc_1 + 719 pi_d_a5_a1_proc_1
      + 719 pi_d_a5_a2_proc_1 + 719 pi_d_a5_a3_proc_1 + 719 pi_d_a5_a4_proc_1
      + 719 pi_d_a5_a6_proc_1 + 719 pi_d_a5_a7_proc_1 + 719 pi_d_a5_a8_proc_1
      + pi_y1_a5 + pi_y2_a5_proc_1 >= 0
 c26: 848 pi_p_a5_a4 + 848 pi_d_a5_a0_proc_2 + 848 pi_d_a5_a2_proc_2
      + 848 pi_d_a5_a4_proc_2 + 848 pi_d_a5_a6_proc_2 + 848 pi_d_a5_a7_proc_2
      + 848 pi_d_a5_a8_proc_2 + pi_y1_a5 + pi_y2_a5_proc_2 >= 0
 c27: 709 pi_p_a5_a4 + 709 pi_d_a5_a1_proc_3 + 709 pi_d_a5_a2_proc_3
      + 709 pi_d_a5_a4_proc_3 + 709 pi_d_a5_a6_proc_3 + 709 pi_d_a5_a8_proc_3
      + 709 pi_d_a5_a9_proc_3 + pi_y1_a5 + pi_y2_a5_proc_3 >= 0
 c28: - pi_p_a1_a6 + pi_p_a6_a9 - pi_p_a7_a6 + pi_p_a6_a3 - pi_d_a0_a6_proc_2
      - pi_d_a0_a6_proc_0 - pi_d_a0_a6_proc_1 + pi_d_a6_a0_proc_2
      + pi_d_a6_a0_proc_0 + pi_d_a6_a0_proc_1 - pi_d_a1_a6_proc_3
      - pi_d_a1_a6_proc_0 - pi_d_a1_a6_proc_1 + pi_d_a6_a1_proc_3
      + pi_d_a6_a1_proc_0 + pi_d_a6_a1_proc_1 - pi_d_a2_a6_proc_2
      - pi_d_a2_a6_proc_3 - pi_d_a2_a6_proc_0 - pi_d_a2_a6_proc_1
      + pi_d_a6_a2_proc_2 + pi_d_a6_a2_proc_3 + pi_d_a6_a2_proc_0
      + pi_d_a6_a2_proc_1 - pi_d_a3_a6_proc_0 - pi_d_a3_a6_proc_1
      + pi_d_a6_a3_proc_0 + pi_d_a6_a3_proc_1 - pi_d_a4_a6_proc_2
      - pi_d_a4_a6_proc_3 - pi_d_a4_a6_proc_0 - pi_d_a4_a6_proc_1
      + pi_d_a6_a4_proc_2 + pi_d_a6_a4_proc_3 + pi_d_a6_a4_proc_0
      + pi_d_a6_a4_proc_1 - pi_d_a5_a6_proc_2 - pi_d_a5_a6_proc_3
      - pi_d_a5_a6_proc_0 - pi_d_a5_a6_proc_1 + pi_d_a6_a5_proc_2
      + pi_d_a6_a5_proc_3 + pi_d_a6_a5_proc_0 + pi_d_a6_a5_proc_1
      + pi_d_a6_a7_proc_2 + pi_d_a6_a7_proc_0 + pi_d_a6_a7_proc_1
      - pi_d_a7_a6_proc_2 - pi_d_a7_a6_proc_0 - pi_d_a7_a6_proc_1
      + pi_d_a6_a8_proc_2 + pi_d_a6_a8_proc_3 + pi_d_a6_a8_proc_0
      + pi_d_a6_a8_proc_1 - pi_d_a8_a6_proc_2 - pi_d_a8_a6_proc_3
      - pi_d_a8_a6_proc_0 - pi_d_a8_a6_proc_1 + pi_d_a6_a9_proc_3
      - pi_d_a9_a6_proc_3 >= 0
 c29: 610 pi_p_a6_a9 + 610 pi_p_a6_a3 + 610 pi_d_a6_a0_proc_0
      + 610 pi_d_a6_a1_proc_0 + 610 pi_d_a6_a2_proc_0 + 610 pi_d_a6_a3_proc_0
      + 610 pi_d_a6_a4_proc_0 + 610 pi_d_a6_a5_proc_0 + 610 pi_d_a6_a7_proc_0
      + 610 pi_d_a6_a8_proc_0 + pi_y1_a6 + pi_y2_a6_proc_0 >= 0
 c30: 745 pi_p_a6_a9 + 745 pi_p_a6_a3 + 745 pi_d_a6_a0_proc_1
      + 745 pi_d_a6_a1_proc_1 + 745 pi_d_a6_a2_proc_1 + 745 pi_d_a6_a3_proc_1
      + 745 pi_d_a6_a4_proc_1 + 745 pi_d_a6_a5_proc_1 + 745 pi_d_a6_a7_proc_1
      + 745 pi_d_a6_a8_proc_1 + pi_y1_a6 + pi_y2_a6_proc_1 >= 0
 c31: 1281 pi_p_a6_a9 + 1281 pi_p_a6_a3 + 1281 pi_d_a6_a0_proc_2
      + 1281 pi_d_a6_a2_proc_2 + 1281 pi_d_a6_a4_proc_2 + 1281 pi_d_a6_a5_proc_2
      + 1281 pi_d_a6_a7_proc_2 + 1281 pi_d_a6_a8_proc_2 + pi_y1_a6
      + pi_y2_a6_proc_2 >= 0
 c32: 925 pi_p_a6_a9 + 925 pi_p_a6_a3 + 925 pi_d_a6_a1_proc_3
      + 925 pi_d_a6_a2_proc_3 + 925 pi_d_a6_a4_proc_3 + 925 pi_d_a6_a5_proc_3
      + 925 pi_d_a6_a8_proc_3 + 925 pi_d_a6_a9_proc_3 + pi_y1_a6
      + pi_y2_a6_proc_3 >= 0
 c33: - pi_p_a4_a7 + pi_p_a7_a8 + pi_p_a7_a6 - pi_d_a0_a7_proc_2
      - pi_d_a0_a7_proc_0 - pi_d_a0_a7_proc_1 + pi_d_a7_a0_proc_2
      + pi_d_a7_a0_proc_0 + pi_d_a7_a0_proc_1 - pi_d_a1_a7_proc_0
      - pi_d_a1_a7_proc_1 + pi_d_a7_a1_proc_0 + pi_d_a7_a1_proc_1
      - pi_d_a2_a7_proc_2 - pi_d_a2_a7_proc_0 - pi_d_a2_a7_proc_1
      + pi_d_a7_a2_proc_2 + pi_d_a7_a2_proc_0 + pi_d_a7_a2_proc_1
      - pi_d_a3_a7_proc_0 - pi_d_a3_a7_proc_1 + pi_d_a7_a3_proc_0
      + pi_d_a7_a3_proc_1 - pi_d_a4_a7_proc_2 - pi_d_a4_a7_proc_0
      - pi_d_a4_a7_proc_1 + pi_d_a7_a4_proc_2 + pi_d_a7_a4_proc_0
      + pi_d_a7_a4_proc_1 - pi_d_a5_a7_proc_2 - pi_d_a5_a7_proc_0
      - pi_d_a5_a7_proc_1 + pi_d_a7_a5_proc_2 + pi_d_a7_a5_proc_0
      + pi_d_a7_a5_proc_1 - pi_d_a6_a7_proc_2 - pi_d_a6_a7_proc_0
      - pi_d_a6_a7_proc_1 + pi_d_a7_a6_proc_2 + pi_d_a7_a6_proc_0
      + pi_d_a7_a6_proc_1 + pi_d_a7_a8_proc_2 + pi_d_a7_a8_proc_0
      + pi_d_a7_a8_proc_1 - pi_d_a8_a7_proc_2 - pi_d_a8_a7_proc_0
      - pi_d_a8_a7_proc_1 >= 0
 c34: 503 pi_p_a7_a8 + 503 pi_p_a7_a6 + 503 pi_d_a7_a0_proc_0
      + 503 pi_d_a7_a1_proc_0 + 503 pi_d_a7_a2_proc_0 + 503 pi_d_a7_a3_proc_0
      + 503 pi_d_a7_a4_proc_0 + 503 pi_d_a7_a5_proc_0 + 503 pi_d_a7_a6_proc_0
      + 503 pi_d_a7_a8_proc_0 + pi_y1_a7 + pi_y2_a7_proc_0 >= 0
 c35: 991 pi_p_a7_a8 + 991 pi_p_a7_a6 + 991 pi_d_a7_a0_proc_1
      + 991 pi_d_a7_a1_proc_1 + 991 pi_d_a7_a2_proc_1 + 991 pi_d_a7_a3_proc_1
      + 991 pi_d_a7_a4_proc_1 + 991 pi_d_a7_a5_proc_1 + 991 pi_d_a7_a6_proc_1
      + 991 pi_d_a7_a8_proc_1 + pi_y1_a7 + pi_y2_a7_proc_1 >= 0
 c36: 1245 pi_p_a7_a8 + 1245 pi_p_a7_a6 + 1245 pi_d_a7_a0_proc_2
      + 1245 pi_d_a7_a2_proc_2 + 1245 pi_d_a7_a4_proc_2 + 1245 pi_d_a7_a5_proc_2
      + 1245 pi_d_a7_a6_proc_2 + 1245 pi_d_a7_a8_proc_2 + pi_y1_a7
      + pi_y2_a7_proc_2 >= 0
 c37: - pi_p_a7_a8 + pi_p_a8_a4 + pi_p_a8_a2 - pi_d_a0_a8_proc_2
      - pi_d_a0_a8_proc_0 - pi_d_a0_a8_proc_1 + pi_d_a8_a0_proc_2
      + pi_d_a8_a0_proc_0 + pi_d_a8_a0_proc_1 - pi_d_a1_a8_proc_3
      - pi_d_a1_a8_proc_0 - pi_d_a1_a8_proc_1 + pi_d_a8_a1_proc_3
      + pi_d_a8_a1_proc_0 + pi_d_a8_a1_proc_1 - pi_d_a2_a8_proc_2
      - pi_d_a2_a8_proc_3 - pi_d_a2_a8_proc_0 - pi_d_a2_a8_proc_1
      + pi_d_a8_a2_proc_2 + pi_d_a8_a2_proc_3 + pi_d_a8_a2_proc_0
      + pi_d_a8_a2_proc_1 - pi_d_a3_a8_proc_0 - pi_d_a3_a8_proc_1
      + pi_d_a8_a3_proc_0 + pi_d_a8_a3_proc_1 - pi_d_a4_a8_proc_2
      - pi_d_a4_a8_proc_3 - pi_d_a4_a8_proc_0 - pi_d_a4_a8_proc_1
      + pi_d_a8_a4_proc_2 + pi_d_a8_a4_proc_3 + pi_d_a8_a4_proc_0
      + pi_d_a8_a4_proc_1 - pi_d_a5_a8_proc_2 - pi_d_a5_a8_proc_3
      - pi_d_a5_a8_proc_0 - pi_d_a5_a8_proc_1 + pi_d_a8_a5_proc_2
      + pi_d_a8_a5_proc_3 + pi_d_a8_a5_proc_0 + pi_d_a8_a5_proc_1
      - pi_d_a6_a8_proc_2 - pi_d_a6_a8_proc_3 - pi_d_a6_a8_proc_0
      - pi_d_a6_a8_proc_1 + pi_d_a8_a6_proc_2 + pi_d_a8_a6_proc_3
      + pi_d_a8_a6_proc_0 + pi_d_a8_a6_proc_1 - pi_d_a7_a8_proc_2
      - pi_d_a7_a8_proc_0 - pi_d_a7_a8_proc_1 + pi_d_a8_a7_proc_2
      + pi_d_a8_a7_proc_0 + pi_d_a8_a7_proc_1 + pi_d_a8_a9_proc_3
      - pi_d_a9_a8_proc_3 >= 0
 c38: 568 pi_p_a8_a4 + 568 pi_p_a8_a2 + 568 pi_p_a8_a8 + 568 pi_d_a8_a0_proc_0
      + 568 pi_d_a8_a1_proc_0 + 568 pi_d_a8_a2_proc_0 + 568 pi_d_a8_a3_proc_0
      + 568 pi_d_a8_a4_proc_0 + 568 pi_d_a8_a5_proc_0 + 568 pi_d_a8_a6_proc_0
      + 568 pi_d_a8_a7_proc_0 + pi_y1_a8 + pi_y2_a8_proc_0 >= 0
 c39: 251 pi_p_a8_a4 + 251 pi_p_a8_a2 + 251 pi_p_a8_a8 + 251 pi_d_a8_a0_proc_1
      + 251 pi_d_a8_a1_proc_1 + 251 pi_d_a8_a2_proc_1 + 251 pi_d_a8_a3_proc_1
      + 251 pi_d_a8_a4_proc_1 + 251 pi_d_a8_a5_proc_1 + 251 pi_d_a8_a6_proc_1
      + 251 pi_d_a8_a7_proc_1 + pi_y1_a8 + pi_y2_a8_proc_1 >= 0
 c40: 541 pi_p_a8_a4 + 541 pi_p_a8_a2 + 541 pi_p_a8_a8 + 541 pi_d_a8_a0_proc_2
      + 541 pi_d_a8_a2_proc_2 + 541 pi_d_a8_a4_proc_2 + 541 pi_d_a8_a5_proc_2
      + 541 pi_d_a8_a6_proc_2 + 541 pi_d_a8_a7_proc_2 + pi_y1_a8
      + pi_y2_a8_proc_2 >= 0
 c41: 1156 pi_p_a8_a4 + 1156 pi_p_a8_a2 + 1156 pi_p_a8_a8
      + 1156 pi_d_a8_a1_proc_3 + 1156 pi_d_a8_a2_proc_3 + 1156 pi_d_a8_a4_proc_3
      + 1156 pi_d_a8_a5_proc_3 + 1156 pi_d_a8_a6_proc_3 + 1156 pi_d_a8_a9_proc_3
      + pi_y1_a8 + pi_y2_a8_proc_3 >= 0
 c42: - pi_p_a6_a9 - pi_p_a0_a9 - pi_d_a1_a9_proc_3 + pi_d_a9_a1_proc_3
      - pi_d_a2_a9_proc_3 + pi_d_a9_a2_proc_3 - pi_d_a4_a9_proc_3
      + pi_d_a9_a4_proc_3 - pi_d_a5_a9_proc_3 + pi_d_a9_a5_proc_3
      - pi_d_a6_a9_proc_3 + pi_d_a9_a6_proc_3 - pi_d_a8_a9_proc_3
      + pi_d_a9_a8_proc_3 >= 0
 c43: 729 pi_d_a9_a1_proc_3 + 729 pi_d_a9_a2_proc_3 + 729 pi_d_a9_a4_proc_3
      + 729 pi_d_a9_a5_proc_3 + 729 pi_d_a9_a6_proc_3 + 729 pi_d_a9_a8_proc_3
      + pi_y1_a9 + pi_y2_a9_proc_3 >= 0

Bounds
       pi_y1_a0 Free
       pi_y1_a1 Free
       pi_y1_a2 Free
       pi_y1_a3 Free
       pi_y1_a4 Free
       pi_y1_a5 Free
       pi_y1_a6 Free
       pi_y1_a7 Free
       pi_y1_a8 Free
       pi_y1_a9 Free
End
