benchmark/results/graph__10-1000-0.10-04_2/graph__10-1000-0.10-04_2_QuintonOs_Benders_sub.txt
solution for: Quinton Bounded Benders_dual_sub
objective: 0.000335909
status: OPTIMAL_SOLUTION(2)
pi_p_a1_a6=0.000
pi_p_a6_a3=0.000
pi_p_a3_a2=0.000
pi_d_a2_a1_proc_3=0.000
pi_y1_a1=-0.345
pi_y1_a2=-0.136
pi_y1_a3=-0.313
pi_y1_a6=-0.205
pi_y2_a2_proc_0=0.136
pi_y2_a2_proc_1=0.136
pi_y2_a2_proc_2=0.136
